
Gurobi 6.5.2 (linux64) logging started Wed Aug 31 10:35:27 2016

Optimize a model with 101 rows, 663 columns and 1397 nonzeros
Coefficient statistics:
  Matrix range    [1e+00, 2e+00]
  Objective range [1e+00, 1e+02]
  Bounds range    [1e+00, 1e+00]
  RHS range       [1e+00, 1e+00]
Found heuristic solution: objective 2166
Presolve removed 35 rows and 16 columns
Presolve time: 0.00s
Presolved: 66 rows, 647 columns, 1310 nonzeros
Variable types: 0 continuous, 647 integer (647 binary)

Root relaxation: objective 8.360000e+02, 65 iterations, 0.00 seconds

    Nodes    |    Current Node    |     Objective Bounds      |     Work
 Expl Unexpl |  Obj  Depth IntInf | Incumbent    BestBd   Gap | It/Node Time

     0     0  836.00000    0   14 2166.00000  836.00000  61.4%     -    0s
H    0     0                     956.0000000  836.00000  12.6%     -    0s
H    0     0                     852.0000000  836.00000  1.88%     -    0s
     0     0  848.00000    0    4  852.00000  848.00000  0.47%     -    0s
     0     0  848.00000    0   12  852.00000  848.00000  0.47%     -    0s
     0     0  848.00000    0    4  852.00000  848.00000  0.47%     -    0s
     0     0  849.50000    0    6  852.00000  849.50000  0.29%     -    0s
     0     0  849.50000    0    4  852.00000  849.50000  0.29%     -    0s
H    0     0                     851.0000000  849.50000  0.18%     -    0s
H    0     0                     850.0000000  849.50000  0.06%     -    0s

Cutting planes:
  Gomory: 6
  Cover: 6
  Clique: 2

Explored 0 nodes (209 simplex iterations) in 0.02 seconds
Thread count was 8 (of 8 available processors)

Optimal solution found (tolerance 1.00e-04)
Best objective 8.500000000000e+02, best bound 8.500000000000e+02, gap 0.0%
